100 100
12 78 1
93 78 1
94 90 1
83 97 1
54 65 1
77 92 1
93 94 1
72 65 1
59 75 1
71 67 1
53 59 1
73 97 1
75 97 1
78 53 1
76 87 1
86 89 1
53 80 1
97 52 1
10 84 1
11 44 1
93 75 1
84 13 1
54 76 1
97 59 1
97 32 1
68 85 1
62 89 1
44 92 1
8 100 1
72 68 1
81 62 1
52 77 1
82 79 1
37 75 1
12 99 1
82 28 1
68 70 1
63 70 1
53 96 1
7 94 1
66 73 1
51 89 1
57 54 1
66 15 1
76 88 1
3 79 1
73 75 1
56 50 1
98 64 1
63 60 1
100 57 1
24 99 1
31 3 1
91 15 1
89 51 1
53 57 1
75 52 1
81 30 1
39 7 1
45 29 1
81 64 1
69 56 1
2 25 1
97 61 1
100 87 1
77 95 1
83 4 1
61 55 1
79 72 1
98 95 1
60 94 1
87 62 1
70 68 1
86 7 1
57 96 1
74 80 1
82 27 1
72 80 1
77 10 1
73 59 1
92 47 1
78 65 1
87 86 1
90 50 1
64 78 1
96 13 1
69 73 1
57 52 1
2 21 1
23 21 1
63 72 1
91 67 1
51 76 1
13 94 1
78 33 1
87 93 1
63 92 1
64 73 1
90 5 1
95 81 1
100 100 
100 100 
100 100 
100 100 
100 100 
100 100 
100 100 
100 100 
100 100 
100 100 
100 100 
100 100 
100 100 
100 100 
100 100 
100 100 
100 100 
100 100 
100 100 
100 100 
100 100 
100 100 
100 100 
100 100 
100 100 
100 100 
100 100 
100 100 
100 100 
100 100 
100 100 
100 100 
100 100 
100 100 
100 100 
100 100 
100 100 
100 100 
100 100 
100 100 
100 100 
100 100 
100 100 
100 100 
100 100 
100 100 
100 100 
100 100 
100 100 
100 100 
100 100 
100 100 
100 100 
100 100 
100 100 
100 100 
100 100 
100 100 
100 100 
100 100 
100 100 
100 100 
100 100 
100 100 
100 100 
100 100 
100 100 
100 100 
100 100 
100 100 
100 100 
100 100 
100 100 
100 100 
100 100 
100 100 
100 100 
100 100 
100 100 
100 100 
100 100 
100 100 
100 100 
100 100 
100 100 
100 100 
100 100 
100 100 
100 100 
100 100 
100 100 
100 100 
100 100 
100 100 
100 100 
100 100 
100 100 
100 100 
100 100 
100 100 
